1 1 0 0 1 0 0 1 1 0 1 1 1 
0 52 72 66 40 40 19 33 76 29 61 40 39 
52 0 56 72 53 35 55 63 54 63 46 33 64 
72 56 0 47 19 19 37 64 50 32 26 63 65 
66 72 47 0 18 43 34 38 23 24 29 21 19 
40 53 19 18 0 31 64 31 57 31 37 46 63 
40 35 19 43 31 0 54 74 56 61 58 28 40 
19 55 37 34 64 54 0 67 32 64 71 78 62 
33 63 64 38 31 74 67 0 17 22 38 49 23 
76 54 50 23 57 56 32 17 0 65 56 45 15 
29 63 32 24 31 61 64 22 65 0 49 24 21 
61 46 26 29 37 58 71 38 56 49 0 67 53 
40 33 63 21 46 28 78 49 45 24 67 0 39 
39 64 65 19 63 40 62 23 15 21 53 39 0 
2 50
1P 7B 4B 5P 11P 3B 6B 2P 12P 10B 13P 9P 8P = 331